Version identifier: 22.1.1.0 | 2022-11-28 | 9160aff4d
CPXPARAM_ClockType                               1
CPXPARAM_Read_DataCheck                          1
CPXPARAM_Threads                                 1
CPXPARAM_TimeLimit                               7200
CPXPARAM_MIP_Tolerances_AbsMIPGap                0
CPXPARAM_MIP_Tolerances_MIPGap                   0
CPXPARAM_MIP_Tolerances_Integrality              0
Tried aggregator 1 time.
MIP Presolve eliminated 12 rows and 4 columns.
MIP Presolve modified 8 coefficients.
Reduced MIP has 114920 rows, 11381 columns, and 619991 nonzeros.
Reduced MIP has 11381 binaries, 0 generals, 0 SOSs, and 0 indicators.
Presolve time = 1.67 sec. (929.62 ticks)
Probing time = 0.02 sec. (11.99 ticks)
Tried aggregator 1 time.
Detecting symmetries...
Reduced MIP has 114920 rows, 11381 columns, and 619991 nonzeros.
Reduced MIP has 11381 binaries, 0 generals, 0 SOSs, and 0 indicators.
Presolve time = 1.75 sec. (956.84 ticks)
Probing time = 0.03 sec. (11.85 ticks)
Clique table members: 106736.
MIP emphasis: balance optimality and feasibility.
MIP search method: dynamic search.
Parallel mode: none, using 1 thread.
Root relaxation solution time = 6.77 sec. (2758.42 ticks)

        Nodes                                         Cuts/
   Node  Left     Objective  IInf  Best Integer    Best Bound    ItCnt     Gap

      0     0     4554.0000  3600                   4554.0000     8558         
      0     0     4554.0000  3863                  Cuts: 1012    17356         
      0     0     4554.0000  3678                   Cuts: 871    24889         
      0     0     4554.0000  3997               ZeroHalf: 1254    44437         
Heuristic still looking.
Detecting symmetries...
      0     2     4554.0000  3373                   4554.0000    44437         
Elapsed time = 1225.72 sec. (313125.19 ticks, tree = 0.01 MB, solutions = 0)
      1     3     4554.0000  4953                   4554.0000   130392         
      2     4     4554.0000  4799                   4554.0000   226174         
      3     5     4554.0000  4810                   4554.0000   226861         
      4     6     4554.0000  4709                   4554.0000   226957         
      5     7     4554.0000  4684                   4554.0000   241756         
      6     8     4554.0000  4804                   4554.0000   241757         
      7     9     4554.0000  4803                   4554.0000   241758         
      8    10     4554.0000  4802                   4554.0000   241759         
     10    12     4554.0000  4477                   4554.0000   242010         
     11    13     4554.0000  4561                   4554.0000   253264         
Elapsed time = 5300.70 sec. (1119643.45 ticks, tree = 0.19 MB, solutions = 0)

Zero-half cuts applied:  216
Gomory fractional cuts applied:  1

Root node processing (before b&c):
  Real time             = 1224.98 sec. (312600.93 ticks)
Sequential b&c:
  Real time             = 5975.16 sec. (1192950.78 ticks)
                          ------------
Total (root+branch&cut) = 7200.14 sec. (1505551.72 ticks)
Solution is infeasible.

---------------------
@@@ MIP_time_limit_infeasible
Traceback (most recent call last):
  File "/scratch/scherif/DiverseSAT-journal_sup/DiverseSAT_Supplementary_Experiments/experiment-1/cplex/jobs/../solvers/CPLEX-DW-SE.py", line 104, in <module>
    print(f">>> Benchmark {os.path.basename(cnf_file)} k {k} OPT {int(prob.solution.get_objective_value())}"
  File "/users/scherif/.local/lib/python3.9/site-packages/cplex/_internal/_subinterfaces.py", line 7211, in get_objective_value
    return CPX_PROC.getobjval(self._env._e, self._cplex._lp)
  File "/users/scherif/.local/lib/python3.9/site-packages/cplex/_internal/_procedural.py", line 2055, in getobjval
    check_status(env, status)
  File "/users/scherif/.local/lib/python3.9/site-packages/cplex/_internal/_procedural.py", line 249, in __call__
    raise CplexSolverError(error_string, env, status)
cplex.exceptions.errors.CplexSolverError: CPLEX Error  1217: No solution exists.
